7108
1 0 0 1 0 1 0 1 0 1 0 1 0 1 0 0 1 0 0 1 0 0 1 0 1 0 1 1 1 0 
0 0 0 0 0 0 0 0 3 5 3 5 5 7 7 7 7 7 7 7 7 7 9 9 9 11 11 13 13 13 13 13 13 13 13 13 16 16 16 16 16 16 19 19 19 19 19 19 22 19 22 19 0 22 22 22 22 24 26 26 26 26 26 26 27 28 28 28 28 28 